*SENSE:Minimize
NAME          CapacitatedFacilityLocation
ROWS
 N  TotalCost
 G  Demand_0
 G  Demand_1
 G  Demand_2
 G  Demand_3
 G  Demand_4
 L  Capacity_0
 L  Capacity_1
 L  Capacity_2
 L  Capacity_3
 L  Capacity_4
 G  TotalDemand
 L  Link_0_0
 L  Link_0_1
 L  Link_0_2
 L  Link_0_3
 L  Link_0_4
 L  Link_1_0
 L  Link_1_1
 L  Link_1_2
 L  Link_1_3
 L  Link_1_4
 L  Link_2_0
 L  Link_2_1
 L  Link_2_2
 L  Link_2_3
 L  Link_2_4
 L  Link_3_0
 L  Link_3_1
 L  Link_3_2
 L  Link_3_3
 L  Link_3_4
 L  Link_4_0
 L  Link_4_1
 L  Link_4_2
 L  Link_4_3
 L  Link_4_4
COLUMNS
    MARK      'MARKER'                 'INTORG'
    Open_0    Capacity_0  -8.000000000000e+01
    Open_0    TotalDemand   8.000000000000e+01
    Open_0    Link_0_0  -1.000000000000e+00
    Open_0    Link_1_0  -1.000000000000e+00
    Open_0    Link_2_0  -1.000000000000e+00
    Open_0    Link_3_0  -1.000000000000e+00
    Open_0    Link_4_0  -1.000000000000e+00
    Open_0    TotalCost   1.500000000000e+02
    MARK      'MARKER'                 'INTEND'
    MARK      'MARKER'                 'INTORG'
    Open_1    Capacity_1  -9.000000000000e+01
    Open_1    TotalDemand   9.000000000000e+01
    Open_1    Link_0_1  -1.000000000000e+00
    Open_1    Link_1_1  -1.000000000000e+00
    Open_1    Link_2_1  -1.000000000000e+00
    Open_1    Link_3_1  -1.000000000000e+00
    Open_1    Link_4_1  -1.000000000000e+00
    Open_1    TotalCost   1.800000000000e+02
    MARK      'MARKER'                 'INTEND'
    MARK      'MARKER'                 'INTORG'
    Open_2    Capacity_2  -7.000000000000e+01
    Open_2    TotalDemand   7.000000000000e+01
    Open_2    Link_0_2  -1.000000000000e+00
    Open_2    Link_1_2  -1.000000000000e+00
    Open_2    Link_2_2  -1.000000000000e+00
    Open_2    Link_3_2  -1.000000000000e+00
    Open_2    Link_4_2  -1.000000000000e+00
    Open_2    TotalCost   1.600000000000e+02
    MARK      'MARKER'                 'INTEND'
    MARK      'MARKER'                 'INTORG'
    Open_3    Capacity_3  -1.000000000000e+02
    Open_3    TotalDemand   1.000000000000e+02
    Open_3    Link_0_3  -1.000000000000e+00
    Open_3    Link_1_3  -1.000000000000e+00
    Open_3    Link_2_3  -1.000000000000e+00
    Open_3    Link_3_3  -1.000000000000e+00
    Open_3    Link_4_3  -1.000000000000e+00
    Open_3    TotalCost   1.700000000000e+02
    MARK      'MARKER'                 'INTEND'
    MARK      'MARKER'                 'INTORG'
    Open_4    Capacity_4  -8.500000000000e+01
    Open_4    TotalDemand   8.500000000000e+01
    Open_4    Link_0_4  -1.000000000000e+00
    Open_4    Link_1_4  -1.000000000000e+00
    Open_4    Link_2_4  -1.000000000000e+00
    Open_4    Link_3_4  -1.000000000000e+00
    Open_4    Link_4_4  -1.000000000000e+00
    Open_4    TotalCost   1.550000000000e+02
    MARK      'MARKER'                 'INTEND'
    Serve_0_0  Demand_0   1.000000000000e+00
    Serve_0_0  Capacity_0   2.000000000000e+01
    Serve_0_0  Link_0_0   1.000000000000e+00
    Serve_0_0  TotalCost   1.000000000000e+01
    Serve_0_1  Demand_0   1.000000000000e+00
    Serve_0_1  Capacity_1   2.000000000000e+01
    Serve_0_1  Link_0_1   1.000000000000e+00
    Serve_0_1  TotalCost   1.200000000000e+01
    Serve_0_2  Demand_0   1.000000000000e+00
    Serve_0_2  Capacity_2   2.000000000000e+01
    Serve_0_2  Link_0_2   1.000000000000e+00
    Serve_0_2  TotalCost   1.500000000000e+01
    Serve_0_3  Demand_0   1.000000000000e+00
    Serve_0_3  Capacity_3   2.000000000000e+01
    Serve_0_3  Link_0_3   1.000000000000e+00
    Serve_0_3  TotalCost   2.000000000000e+01
    Serve_0_4  Demand_0   1.000000000000e+00
    Serve_0_4  Capacity_4   2.000000000000e+01
    Serve_0_4  Link_0_4   1.000000000000e+00
    Serve_0_4  TotalCost   1.800000000000e+01
    Serve_1_0  Demand_1   1.000000000000e+00
    Serve_1_0  Capacity_0   2.500000000000e+01
    Serve_1_0  Link_1_0   1.000000000000e+00
    Serve_1_0  TotalCost   1.400000000000e+01
    Serve_1_1  Demand_1   1.000000000000e+00
    Serve_1_1  Capacity_1   2.500000000000e+01
    Serve_1_1  Link_1_1   1.000000000000e+00
    Serve_1_1  TotalCost   1.100000000000e+01
    Serve_1_2  Demand_1   1.000000000000e+00
    Serve_1_2  Capacity_2   2.500000000000e+01
    Serve_1_2  Link_1_2   1.000000000000e+00
    Serve_1_2  TotalCost   1.300000000000e+01
    Serve_1_3  Demand_1   1.000000000000e+00
    Serve_1_3  Capacity_3   2.500000000000e+01
    Serve_1_3  Link_1_3   1.000000000000e+00
    Serve_1_3  TotalCost   1.600000000000e+01
    Serve_1_4  Demand_1   1.000000000000e+00
    Serve_1_4  Capacity_4   2.500000000000e+01
    Serve_1_4  Link_1_4   1.000000000000e+00
    Serve_1_4  TotalCost   1.900000000000e+01
    Serve_2_0  Demand_2   1.000000000000e+00
    Serve_2_0  Capacity_0   3.000000000000e+01
    Serve_2_0  Link_2_0   1.000000000000e+00
    Serve_2_0  TotalCost   1.300000000000e+01
    Serve_2_1  Demand_2   1.000000000000e+00
    Serve_2_1  Capacity_1   3.000000000000e+01
    Serve_2_1  Link_2_1   1.000000000000e+00
    Serve_2_1  TotalCost   1.700000000000e+01
    Serve_2_2  Demand_2   1.000000000000e+00
    Serve_2_2  Capacity_2   3.000000000000e+01
    Serve_2_2  Link_2_2   1.000000000000e+00
    Serve_2_2  TotalCost   1.200000000000e+01
    Serve_2_3  Demand_2   1.000000000000e+00
    Serve_2_3  Capacity_3   3.000000000000e+01
    Serve_2_3  Link_2_3   1.000000000000e+00
    Serve_2_3  TotalCost   1.400000000000e+01
    Serve_2_4  Demand_2   1.000000000000e+00
    Serve_2_4  Capacity_4   3.000000000000e+01
    Serve_2_4  Link_2_4   1.000000000000e+00
    Serve_2_4  TotalCost   1.500000000000e+01
    Serve_3_0  Demand_3   1.000000000000e+00
    Serve_3_0  Capacity_0   1.800000000000e+01
    Serve_3_0  Link_3_0   1.000000000000e+00
    Serve_3_0  TotalCost   1.200000000000e+01
    Serve_3_1  Demand_3   1.000000000000e+00
    Serve_3_1  Capacity_1   1.800000000000e+01
    Serve_3_1  Link_3_1   1.000000000000e+00
    Serve_3_1  TotalCost   1.500000000000e+01
    Serve_3_2  Demand_3   1.000000000000e+00
    Serve_3_2  Capacity_2   1.800000000000e+01
    Serve_3_2  Link_3_2   1.000000000000e+00
    Serve_3_2  TotalCost   1.000000000000e+01
    Serve_3_3  Demand_3   1.000000000000e+00
    Serve_3_3  Capacity_3   1.800000000000e+01
    Serve_3_3  Link_3_3   1.000000000000e+00
    Serve_3_3  TotalCost   1.800000000000e+01
    Serve_3_4  Demand_3   1.000000000000e+00
    Serve_3_4  Capacity_4   1.800000000000e+01
    Serve_3_4  Link_3_4   1.000000000000e+00
    Serve_3_4  TotalCost   1.600000000000e+01
    Serve_4_0  Demand_4   1.000000000000e+00
    Serve_4_0  Capacity_0   2.200000000000e+01
    Serve_4_0  Link_4_0   1.000000000000e+00
    Serve_4_0  TotalCost   1.100000000000e+01
    Serve_4_1  Demand_4   1.000000000000e+00
    Serve_4_1  Capacity_1   2.200000000000e+01
    Serve_4_1  Link_4_1   1.000000000000e+00
    Serve_4_1  TotalCost   1.300000000000e+01
    Serve_4_2  Demand_4   1.000000000000e+00
    Serve_4_2  Capacity_2   2.200000000000e+01
    Serve_4_2  Link_4_2   1.000000000000e+00
    Serve_4_2  TotalCost   1.400000000000e+01
    Serve_4_3  Demand_4   1.000000000000e+00
    Serve_4_3  Capacity_3   2.200000000000e+01
    Serve_4_3  Link_4_3   1.000000000000e+00
    Serve_4_3  TotalCost   1.500000000000e+01
    Serve_4_4  Demand_4   1.000000000000e+00
    Serve_4_4  Capacity_4   2.200000000000e+01
    Serve_4_4  Link_4_4   1.000000000000e+00
    Serve_4_4  TotalCost   1.700000000000e+01
RHS
    RHS       Demand_0   1.000000000000e+00
    RHS       Demand_1   1.000000000000e+00
    RHS       Demand_2   1.000000000000e+00
    RHS       Demand_3   1.000000000000e+00
    RHS       Demand_4   1.000000000000e+00
    RHS       Capacity_0   0.000000000000e+00
    RHS       Capacity_1   0.000000000000e+00
    RHS       Capacity_2   0.000000000000e+00
    RHS       Capacity_3   0.000000000000e+00
    RHS       Capacity_4   0.000000000000e+00
    RHS       TotalDemand   1.150000000000e+02
    RHS       Link_0_0   0.000000000000e+00
    RHS       Link_0_1   0.000000000000e+00
    RHS       Link_0_2   0.000000000000e+00
    RHS       Link_0_3   0.000000000000e+00
    RHS       Link_0_4   0.000000000000e+00
    RHS       Link_1_0   0.000000000000e+00
    RHS       Link_1_1   0.000000000000e+00
    RHS       Link_1_2   0.000000000000e+00
    RHS       Link_1_3   0.000000000000e+00
    RHS       Link_1_4   0.000000000000e+00
    RHS       Link_2_0   0.000000000000e+00
    RHS       Link_2_1   0.000000000000e+00
    RHS       Link_2_2   0.000000000000e+00
    RHS       Link_2_3   0.000000000000e+00
    RHS       Link_2_4   0.000000000000e+00
    RHS       Link_3_0   0.000000000000e+00
    RHS       Link_3_1   0.000000000000e+00
    RHS       Link_3_2   0.000000000000e+00
    RHS       Link_3_3   0.000000000000e+00
    RHS       Link_3_4   0.000000000000e+00
    RHS       Link_4_0   0.000000000000e+00
    RHS       Link_4_1   0.000000000000e+00
    RHS       Link_4_2   0.000000000000e+00
    RHS       Link_4_3   0.000000000000e+00
    RHS       Link_4_4   0.000000000000e+00
BOUNDS
 BV BND       Open_0  
 BV BND       Open_1  
 BV BND       Open_2  
 BV BND       Open_3  
 BV BND       Open_4  
ENDATA
